0
0
15
0
0
8
4
10
16
0
5
7
0
6
0
0
13
0
9
0
7
0
0
8
0
0
17
0
0
7
0
4
4
6
8
0
6
8
0
0
0
0
0
10
0
5
0
0
0
6
4
7
9
0
6
0
0
7
11
0
0
0
0
5
8
22
0
0
0
4
0
14
14
0
0
0
9
8
0
0
8
0
10
8
0
0
0
9
0
0
6
8
0
7
4
5
0
0
6
0
